1 0
2 0
3 0
4 0
5 0
6 0
7 0
8 0
9 0
10 0
11 0
12 0
13 0
14 0
15 0
16 0
17 0
18 0
19 0
20 0
21 0
22 0
23 0
24 0
25 0
26 0
27 0
28 0
29 0
30 0
31 0
32 0
33 0
34 0
35 0
36 0
37 0
38 0
39 0
40 0
41 0
42 0
43 0
44 0
45 0
46 0
47 0
48 0
49 0
50 0
51 0
52 0
53 0
54 0
55 0
56 0
57 0
58 0
59 0
60 0
61 0
62 0
63 0
64 0
65 0
66 0
67 0
68 0
69 0
70 0
71 0
72 0
73 0
74 0
75 0
76 0
77 0
78 0
79 0
80 0
81 0
82 0
83 0
84 0
85 0
86 0
87 0
88 0
89 0
90 0
91 0
92 0
93 0
94 0
95 0
96 0
97 0
98 0
99 0
100 0
101 0
102 0
103 0
104 0
105 0
106 0
107 0
108 0
109 0
110 0
111 0
112 0
113 0
114 0
115 0
116 0
117 0
118 0
119 0
120 0
121 0
122 0
123 0
124 0
125 0
126 0
127 0
128 0
129 0
130 0
131 0
132 0
133 0
134 0
135 0
136 0
137 0
138 0
139 0
140 0
141 0
142 0
143 0
144 0
145 0
146 0
147 0
148 0
149 0
150 0
151 0
152 0
153 0
154 0
155 0
156 0
157 0
158 0
159 0
160 0
161 0
162 0
163 0
164 0
165 0
166 0
167 0
168 0
170 0
171 0
172 0
173 0
174 0
175 0
176 0
177 0
178 0
179 0
180 0
181 0
182 0
183 0
184 0
185 0
186 0
187 0
188 0
189 0
190 0
191 0
192 0
193 0
194 0
195 0
196 0
197 0
198 0
199 0
200 0
201 0
202 0
203 0
204 0
205 0
206 0
207 0
208 0
211 0
212 0
213 0
214 0
215 0
216 0
217 0
218 0
219 0
220 0
221 0
222 0
223 0
224 0
225 0
226 0
227 0
228 0
229 0
230 0
231 0
232 0
234 0
235 0
236 0
237 0
238 0
239 0
240 0
241 0
242 0
243 0
244 0
245 0
246 0
247 0
248 0
250 0
251 0
252 0
253 0
254 0
255 0
256 0
257 0
258 0
259 0
260 0
261 0
262 0
263 0
264 0
265 0
266 0
267 0
268 0
269 0
270 0
271 0
272 0
273 0
274 0
275 0
276 0
277 0
278 0
279 0
280 0
281 0
282 0
283 0
284 0
285 0
287 0
289 0
290 0
291 0
292 0
293 0
294 0
295 0
296 0
297 0
298 0
299 0
300 0
301 0
302 0
303 0
304 0
305 0
306 0
307 0
308 0
309 0
310 0
311 0
313 0
314 0
316 0
317 0
318 0
319 0
320 0
321 0
322 0
323 0
324 0
325 0
326 0
327 0
328 0
329 0
330 0
331 0
332 0
334 0
335 0
336 0
337 0
338 0
339 0
340 0
341 0
342 0
343 0
344 0
345 0
346 0
348 0
349 0
350 0
351 0
352 0
353 0
354 0
356 0
357 0
359 0
360 0
361 0
362 0
363 0
364 0
365 0
366 0
367 0
368 0
369 0
370 0
371 0
372 0
373 0
374 0
375 0
376 0
377 0
378 0
380 0
381 0
382 0
383 0
384 0
385 0
386 0
387 0
388 0
390 0
391 0
392 0
393 0
394 0
396 0
397 0
398 0
399 0
402 0
403 0
405 0
406 0
408 0
409 0
410 0
411 0
412 0
414 0
415 0
419 0
420 0
421 0
422 0
423 0
424 0
425 0
426 0
427 0
428 0
429 0
431 0
432 0
433 0
436 0
437 0
438 0
439 0
440 0
441 0
443 0
444 0
445 0
447 0
448 0
449 0
450 0
451 0
453 0
454 0
455 0
456 0
457 0
458 0
459 0
461 0
462 0
463 0
464 0
465 0
466 0
467 0
468 0
469 0
470 0
471 0
473 0
474 0
475 0
477 0
478 0
480 0
481 0
482 0
483 0
485 0
486 0
488 0
489 0
491 0
492 0
493 0
494 0
496 0
497 0
499 0
500 0
501 0
503 0
505 0
507 0
509 0
511 0
513 0
514 0
516 0
520 0
521 0
522 0
523 0
524 0
526 0
528 0
529 0
530 0
532 0
534 0
537 0
538 0
539 0
542 0
545 0
546 0
551 0
552 0
555 0
561 0
562 0
563 0
564 0
565 0
567 0
568 0
569 0
570 0
571 0
572 0
574 0
575 0
576 0
580 0
581 0
582 0
583 0
584 0
586 0
588 0
591 0
594 0
596 0
597 0
599 0
600 0
601 0
607 0
609 0
610 0
611 0
612 0
613 0
614 0
617 0
619 0
620 0
621 0
622 0
623 0
624 0
625 0
628 0
629 0
631 0
632 0
633 0
634 0
635 0
637 0
639 0
641 0
642 0
646 0
648 0
649 0
651 0
659 0
660 0
662 0
664 0
665 0
668 0
674 0
675 0
677 0
678 0
679 0
681 0
682 0
683 0
685 0
689 0
690 0
692 0
693 0
695 0
696 0
697 0
700 0
702 0
703 0
706 0
707 0
709 0
711 0
714 0
715 0
717 0
718 0
719 0
720 0
721 0
723 0
725 0
726 0
727 0
728 0
733 0
735 0
737 0
743 0
744 0
745 0
747 0
750 0
751 0
755 0
760 0
761 0
762 0
766 0
769 0
770 0
771 0
772 0
774 0
776 0
777 0
778 0
780 0
781 0
784 0
785 0
787 0
788 0
793 0
795 0
796 0
798 0
800 0
804 0
805 0
810 0
812 0
815 0
817 0
818 0
819 0
822 0
823 0
826 0
830 0
833 0
836 0
838 0
839 0
842 0
845 0
849 0
851 0
854 0
855 0
856 0
857 0
858 0
859 0
860 0
861 0
862 0
867 0
868 0
872 0
873 0
878 0
879 0
891 0
894 0
896 0
898 0
904 0
905 0
908 0
910 0
913 0
914 0
915 0
919 0
920 0
922 0
923 0
924 0
933 0
936 0
938 0
939 0
942 0
943 0
944 0
948 0
951 0
952 0
953 0
956 0
959 0
967 0
969 0
970 0
971 0
972 0
974 0
979 0
980 0
983 0
984 0
985 0
987 0
990 0
992 0
993 0
994 0
998 0
1003 0
1010 0
1011 0
1014 0
1019 0
1020 0
1022 0
1023 0
1024 0
1029 0
1038 0
1039 0
1043 0
1051 0
1059 0
1060 0
1062 0
1064 0
1068 0
1070 0
1071 0
1073 0
1074 0
1075 0
1076 0
1078 0
1083 0
1088 0
1092 0
1098 0
1100 0
1104 0
1107 0
1109 0
1119 0
1120 0
1121 0
1128 0
1129 0
1133 0
1139 0
1144 0
1147 0
1148 0
1157 0
1164 0
1169 0
1175 0
1185 0
1198 0
1209 0
1213 0
1214 0
1242 0
1248 0
1249 0
1250 0
1258 0
1259 0
1266 0
1269 0
1271 0
1282 0
1289 0
1299 0
1315 0
1316 0
1321 0
1323 0
1324 0
1329 0
1341 0
1343 0
1350 0
1352 0
1354 0
1357 0
1358 0
1363 0
1370 0
1374 0
1378 0
1387 0
1389 0
1404 0
1410 0
1411 0
1430 0
1434 0
1441 0
1452 0
1485 0
1489 0
1500 0
1501 0
1502 0
1516 0
1518 0
1522 0
1524 0
1527 0
1562 0
1565 0
1582 0
1593 0
1595 0
1598 0
1600 0
1605 0
1611 0
1615 0
1623 0
1644 0
1662 0
1671 0
1678 0
1684 0
1687 0
1694 0
1726 0
1767 0
1798 0
1832 0
1868 0
1884 0
1932 0
1979 0
1987 0
2076 0
2090 0
2107 0
2239 0
